c An instance of conditional planning (by rintanen@informatik.uni-freiburg.de)
p cnf 68 325
e 12 13 14 15 16 17 18 19 20 21 22 23 24 25 26 27 28 29 30 31 32 33 0
a 46 45 44 47 0
e 1 2 3 4 5 6 7 8 9 10 11 34 35 36 37 38 39 40 41 42 43 48 49 50 51 52 53 54 55 56 57 58 59 60 61 62 63 64 65 66 67 68 0
-46 -48 44 45 47 0
-46 -49 44 45 47 0
-46 -50 44 45 47 0
-46 -51 44 45 47 0
-46 -52 44 45 47 0
-46 -53 44 45 47 0
-46 -54 44 45 47 0
-46 44 45 47 55 0
-46 -56 44 45 47 0
-46 -57 44 45 47 0
-44 -45 -47 -48 46 0
-44 -45 -47 -49 46 0
-44 -45 -47 -50 46 0
-44 -45 -47 -51 46 0
-44 -45 -47 -52 46 0
-44 -45 -47 -53 46 0
-44 -45 -47 46 54 0
-44 -45 -47 -55 46 0
-44 -45 -47 -56 46 0
-44 -45 -47 -57 46 0
-44 -45 -48 46 47 0
-44 -45 -49 46 47 0
-44 -45 -50 46 47 0
-44 -45 -51 46 47 0
-44 -45 -52 46 47 0
-44 -45 46 47 53 0
-44 -45 -54 46 47 0
-44 -45 -55 46 47 0
-44 -45 -56 46 47 0
-44 -45 -57 46 47 0
-45 -47 -48 44 46 0
-45 -47 -49 44 46 0
-45 -47 -50 44 46 0
-45 -47 -51 44 46 0
-45 -47 44 46 52 0
-45 -47 -53 44 46 0
-45 -47 -54 44 46 0
-45 -47 -55 44 46 0
-45 -47 -56 44 46 0
-45 -47 -57 44 46 0
-45 -48 44 46 47 0
-45 -49 44 46 47 0
-45 -50 44 46 47 0
-45 44 46 47 51 0
-45 -52 44 46 47 0
-45 -53 44 46 47 0
-45 -54 44 46 47 0
-45 -55 44 46 47 0
-45 -56 44 46 47 0
-45 -57 44 46 47 0
-44 -47 -48 45 46 0
-44 -47 -49 45 46 0
-44 -47 45 46 50 0
-44 -47 -51 45 46 0
-44 -47 -52 45 46 0
-44 -47 -53 45 46 0
-44 -47 -54 45 46 0
-44 -47 -55 45 46 0
-44 -47 -56 45 46 0
-44 -47 -57 45 46 0
-44 -48 45 46 47 0
-44 45 46 47 49 0
-44 -50 45 46 47 0
-44 -51 45 46 47 0
-44 -52 45 46 47 0
-44 -53 45 46 47 0
-44 -54 45 46 47 0
-44 -55 45 46 47 0
-44 -56 45 46 47 0
-44 -57 45 46 47 0
-47 44 45 46 48 0
-47 -49 44 45 46 0
-47 -50 44 45 46 0
-47 -51 44 45 46 0
-47 -52 44 45 46 0
-47 -53 44 45 46 0
-47 -54 44 45 46 0
-47 -55 44 45 46 0
-47 -56 44 45 46 0
-47 -57 44 45 46 0
-48 44 45 46 47 0
-49 44 45 46 47 0
-50 44 45 46 47 0
-51 44 45 46 47 0
-52 44 45 46 47 0
-53 44 45 46 47 0
-54 44 45 46 47 0
-55 44 45 46 47 0
-56 44 45 46 47 0
44 45 46 47 57 0
-46 -47 -48 44 45 0
-46 -47 -49 44 45 0
-46 -47 -50 44 45 0
-46 -47 -51 44 45 0
-46 -47 -52 44 45 0
-46 -47 -53 44 45 0
-46 -47 -54 44 45 0
-46 -47 -55 44 45 0
-46 -47 44 45 56 0
-46 -47 -57 44 45 0
-58 0
-59 0
-60 0
-61 0
-62 0
-63 0
-64 0
-65 0
-66 0
-67 0
-68 0
-12 -68 0
-12 -58 0
-14 -59 0
-14 -68 0
-16 -60 0
-16 -68 0
-18 -61 0
-18 -68 0
-20 -62 0
-20 -68 0
-22 -63 0
-22 -68 0
-24 -64 0
-24 -68 0
-26 -65 0
-26 -68 0
-28 -66 0
-28 -68 0
-30 -67 0
-30 -68 0
-31 68 0
-12 2 0
-12 -34 0
-12 1 0
-14 3 0
-14 -35 0
-14 2 0
-16 4 0
-16 -36 0
-16 2 0
-18 5 0
-18 -37 0
-18 2 0
-20 6 0
-20 -38 0
-20 2 0
-22 7 0
-22 -39 0
-22 2 0
-24 8 0
-24 -40 0
-24 2 0
-26 9 0
-26 -41 0
-26 2 0
-28 10 0
-28 -42 0
-28 2 0
-30 11 0
-30 -43 0
-30 2 0
-2 -31 0
-1 12 58 0
-58 1 0
-2 12 14 16 18 20 22 24 26 28 30 68 0
-68 2 31 0
-34 57 0
-57 12 34 0
-3 14 59 0
-59 3 0
-35 48 0
-48 14 35 0
-4 16 60 0
-60 4 0
-36 49 0
-49 16 36 0
-5 18 61 0
-61 5 0
-37 50 0
-50 18 37 0
-6 20 62 0
-62 6 0
-38 51 0
-51 20 38 0
-7 22 63 0
-63 7 0
-39 52 0
-52 22 39 0
-8 24 64 0
-64 8 0
-40 53 0
-53 24 40 0
-9 26 65 0
-65 9 0
-41 54 0
-54 26 41 0
-10 28 66 0
-66 10 0
-42 55 0
-55 28 42 0
-11 30 67 0
-67 11 0
-43 56 0
-56 30 43 0
-12 -14 0
-13 -15 0
-12 -16 0
-13 -17 0
-12 -18 0
-13 -19 0
-12 -20 0
-13 -21 0
-12 -22 0
-13 -23 0
-12 -24 0
-13 -25 0
-12 -26 0
-13 -27 0
-12 -28 0
-13 -29 0
-12 -30 0
-13 -32 0
-12 -31 0
-13 -33 0
-14 -16 0
-15 -17 0
-14 -18 0
-15 -19 0
-14 -20 0
-15 -21 0
-14 -22 0
-15 -23 0
-14 -24 0
-15 -25 0
-14 -26 0
-15 -27 0
-14 -28 0
-15 -29 0
-14 -30 0
-15 -32 0
-14 -31 0
-15 -33 0
-16 -18 0
-17 -19 0
-16 -20 0
-17 -21 0
-16 -22 0
-17 -23 0
-16 -24 0
-17 -25 0
-16 -26 0
-17 -27 0
-16 -28 0
-17 -29 0
-16 -30 0
-17 -32 0
-16 -31 0
-17 -33 0
-18 -20 0
-19 -21 0
-18 -22 0
-19 -23 0
-18 -24 0
-19 -25 0
-18 -26 0
-19 -27 0
-18 -28 0
-19 -29 0
-18 -30 0
-19 -32 0
-18 -31 0
-19 -33 0
-20 -22 0
-21 -23 0
-20 -24 0
-21 -25 0
-20 -26 0
-21 -27 0
-20 -28 0
-21 -29 0
-20 -30 0
-21 -32 0
-20 -31 0
-21 -33 0
-22 -24 0
-23 -25 0
-22 -26 0
-23 -27 0
-22 -28 0
-23 -29 0
-22 -30 0
-23 -32 0
-22 -31 0
-23 -33 0
-24 -26 0
-25 -27 0
-24 -28 0
-25 -29 0
-24 -30 0
-25 -32 0
-24 -31 0
-25 -33 0
-26 -28 0
-27 -29 0
-26 -30 0
-27 -32 0
-26 -31 0
-27 -33 0
-28 -30 0
-29 -32 0
-28 -31 0
-29 -33 0
-30 -31 0
-32 -33 0
-34 0
-35 0
-36 0
-37 0
-38 0
-39 0
-40 0
-41 0
-42 0
-43 0
